P4                                      
   1.00000000000000     
     3.2972039999999998    0.0000000000000000    0.0000000000000000
     0.0000000000000000    5.0646269999999998   -0.0000530000000000
     0.0000000000000000    0.0000000000000000   20.0243900000000004
   P 
     4
Direct
  0.5000000000628337  0.8973649140073137  0.5507819437554359
  0.4999999999371663  0.1026350859926864  0.4492180562445641
 -0.0000000011212484  0.3973608110118738  0.4492180575915837
  0.0000000011212484  0.6026391889881262  0.5507819424084165
 
  0.00000000E+00  0.00000000E+00  0.00000000E+00
  0.00000000E+00  0.00000000E+00  0.00000000E+00
  0.00000000E+00  0.00000000E+00  0.00000000E+00
  0.00000000E+00  0.00000000E+00  0.00000000E+00
