P4                                      
   1.00000000000000     
     3.2972039999999998    0.0000000000000000    0.0000000000000000
     0.0000000000000000    5.0222449999999998   -0.0000530000000000
     0.0000000000000000    0.0000000000000000   20.0243900000000004
   P 
     4
Direct
  0.4999999991125446  0.8985720678568747  0.5509607880346740
  0.5000000008874554  0.1014279321431254  0.4490392119653260
  0.0000000017540788  0.3985678956177287  0.4490392129643501
 -0.0000000017540788  0.6014321043822713  0.5509607870356500
 
  0.00000000E+00  0.00000000E+00  0.00000000E+00
  0.00000000E+00  0.00000000E+00  0.00000000E+00
  0.00000000E+00  0.00000000E+00  0.00000000E+00
  0.00000000E+00  0.00000000E+00  0.00000000E+00
