P4                                      
   1.00000000000000     
     3.2972039999999998    0.0000000000000000    0.0000000000000000
     0.0000000000000000    4.5768839999999997   -0.0000530000000000
     0.0000000000000000    0.0000000000000000   20.0243900000000004
   P 
     4
Direct
  0.4999999966915739  0.9123417295926332  0.5526719258378815
  0.5000000033084261  0.0876582704073669  0.4473280741621185
  0.0000000025752931  0.4123369866798518  0.4473280795260870
 -0.0000000025752931  0.5876630133201484  0.5526719204739130
 
  0.00000000E+00  0.00000000E+00  0.00000000E+00
  0.00000000E+00  0.00000000E+00  0.00000000E+00
  0.00000000E+00  0.00000000E+00  0.00000000E+00
  0.00000000E+00  0.00000000E+00  0.00000000E+00
