P4                                      
   1.00000000000000     
     3.2971629999999998   -0.0164860000000000    0.0000000000000000
    -0.0231170000000000    4.6232930000000003   -0.0000530000000000
     0.0000000000000000    0.0000000000000000   20.0243900000000004
   P 
     4
Direct
  0.5019096462888900  0.9108717574761688  0.5525134204043580
  0.4980903537111099  0.0891282425238312  0.4474865795956419
  0.0019096340485472  0.4108674208421910  0.4474865849260951
 -0.0019096340485472  0.5891325791578090  0.5525134150739049
 
  0.00000000E+00  0.00000000E+00  0.00000000E+00
  0.00000000E+00  0.00000000E+00  0.00000000E+00
  0.00000000E+00  0.00000000E+00  0.00000000E+00
  0.00000000E+00  0.00000000E+00  0.00000000E+00
