P4                                      
   1.00000000000000     
     3.2972039999999998    0.0000000000000000    0.0000000000000000
     0.0000000000000000    4.8047269999999997   -0.0000530000000000
     0.0000000000000000    0.0000000000000000   20.0243900000000004
   P 
     4
Direct
  0.4999999990544594  0.9050662519811857  0.5518371750646559
  0.5000000009455406  0.0949337480188143  0.4481628249353440
  0.0000000022535892  0.4050618204139216  0.4481628253326266
 -0.0000000022535892  0.5949381795860784  0.5518371746673734
 
  0.00000000E+00  0.00000000E+00  0.00000000E+00
  0.00000000E+00  0.00000000E+00  0.00000000E+00
  0.00000000E+00  0.00000000E+00  0.00000000E+00
  0.00000000E+00  0.00000000E+00  0.00000000E+00
