P4                                      
   1.00000000000000     
     3.2972039999999998    0.0000000000000000    0.0000000000000000
     0.0000000000000000    4.6233510000000004   -0.0000530000000000
     0.0000000000000000    0.0000000000000000   20.0243900000000004
   P 
     4
Direct
  0.5000000000000000  0.9107729999999989  0.5525209999999987
  0.5000000000000000  0.0892270000000011  0.4474790000000013
  0.0000000000000000  0.4107690000000019  0.4474790000000013
  0.0000000000000000  0.5892309999999981  0.5525209999999987
 
  0.00000000E+00  0.00000000E+00  0.00000000E+00
  0.00000000E+00  0.00000000E+00  0.00000000E+00
  0.00000000E+00  0.00000000E+00  0.00000000E+00
  0.00000000E+00  0.00000000E+00  0.00000000E+00
