P4                                      
   1.00000000000000     
     3.2972039999999998    0.0000000000000000    0.0000000000000000
     0.0000000000000000    4.5534730000000003   -0.0000530000000000
     0.0000000000000000    0.0000000000000000   20.0243900000000004
   P 
     4
Direct
  0.5000000014822130  0.9131344148037492  0.5527508680362786
  0.4999999985177870  0.0868655851962508  0.4472491319637216
 -0.0000000015484482  0.4131296332942954  0.4472491379482504
  0.0000000015484482  0.5868703667057047  0.5527508620517497
 
  0.00000000E+00  0.00000000E+00  0.00000000E+00
  0.00000000E+00  0.00000000E+00  0.00000000E+00
  0.00000000E+00  0.00000000E+00  0.00000000E+00
  0.00000000E+00  0.00000000E+00  0.00000000E+00
