P4                                      
   1.00000000000000     
     3.2972039999999998    0.0000000000000000    0.0000000000000000
     0.0000000000000000    4.6464100000000004   -0.0000530000000000
     0.0000000000000000    0.0000000000000000   20.0243900000000004
   P 
     4
Direct
  0.4999999987949199  0.9100627072504921  0.5524563181899455
  0.5000000012050801  0.0899372927495079  0.4475436818100545
  0.0000000005268228  0.4100582121142179  0.4475436863867319
 -0.0000000005268228  0.5899417878857821  0.5524563136132681
 
  0.00000000E+00  0.00000000E+00  0.00000000E+00
  0.00000000E+00  0.00000000E+00  0.00000000E+00
  0.00000000E+00  0.00000000E+00  0.00000000E+00
  0.00000000E+00  0.00000000E+00  0.00000000E+00
