C2                                      
   1.00000000000000     
     2.4525380000000001    0.0000000000000000    0.0000000000000000
    -1.2262690000000001    2.1373609999999998    0.0000000000000000
     0.0000000000000000    0.0000000000000000   15.0000000000000000
   C 
     2
Direct
  0.9997908131247542  0.9995816262495083  0.5000000000000000
  0.3335421868752491  0.6670853737504885  0.5000000000000000
 
  0.00000000E+00  0.00000000E+00  0.00000000E+00
  0.00000000E+00  0.00000000E+00  0.00000000E+00
