C2                                      
   1.00000000000000     
     2.4525380000000001    0.0000000000000000    0.0000000000000000
    -1.2262690000000001    2.1373609999999998    0.0000000000000000
     0.0000000000000000    0.0000000000000000   15.0000000000000000
   C 
     2
Direct
 -0.0002091868752452 -0.0004183737504904  0.5000000000000000
  0.3335421868752484  0.6670853737504872  0.5000000000000000
 
  0.00000000E+00  0.00000000E+00  0.00000000E+00
  0.00000000E+00  0.00000000E+00  0.00000000E+00
