P4                                      
   1.00000000000000     
     3.2473690000000000    0.0000000000000000    0.0000000000000000
     0.0000000000000000    4.5534730000000003   -0.0000530000000000
     0.0000000000000000    0.0000000000000000   20.0243900000000004
   P 
     4
Direct
  0.5000000000790532  0.9138942687514268  0.5528522574917932
  0.4999999999209469  0.0861057312485734  0.4471477425082069
 -0.0000000002619473  0.4138894776089873  0.4471477493417811
  0.0000000002619473  0.5861105223910127  0.5528522506582190
 
  0.00000000E+00  0.00000000E+00  0.00000000E+00
  0.00000000E+00  0.00000000E+00  0.00000000E+00
  0.00000000E+00  0.00000000E+00  0.00000000E+00
  0.00000000E+00  0.00000000E+00  0.00000000E+00
