C2                                      
   1.00000000000000     
     2.4680119730716292    0.0000000000000000    0.0000000000000000
    -1.2340059865358146    2.1373605673872991    0.0000000000000000
     0.0000000000000000    0.0000000000000000   15.0000000000000000
   C 
     2
Direct
 -0.0000000000000000 -0.0000000000000000  0.5000000000000000
  0.3333330000000032  0.6666669999999968  0.5000000000000000
 
  0.00000000E+00  0.00000000E+00  0.00000000E+00
  0.00000000E+00  0.00000000E+00  0.00000000E+00
