P4                                      
   1.00000000000000     
     3.2972039999999998    0.0000000000000000    0.0000000000000000
     0.0000000000000000    4.5299399999999999   -0.0000530000000000
     0.0000000000000000    0.0000000000000000   20.0243900000000004
   P 
     4
Direct
  0.4999999990685465  0.9139277496684391  0.5528287312461411
  0.5000000009314536  0.0860722503315608  0.4471712687538590
  0.0000000003954804  0.4139229347925205  0.4471712740389491
 -0.0000000003954804  0.5860770652074795  0.5528287259610509
 
  0.00000000E+00  0.00000000E+00  0.00000000E+00
  0.00000000E+00  0.00000000E+00  0.00000000E+00
  0.00000000E+00  0.00000000E+00  0.00000000E+00
  0.00000000E+00  0.00000000E+00  0.00000000E+00
