Ge2 Se4                                 
   1.00000000000000     
     4.9050950000000002    0.0981410000000000    0.0000000000000000
     0.1114460000000000    5.5700870000000000    0.0000000000000000
     0.0000000000000000    0.0000000000000000   18.0792910000000013
   Ge   Se
     2     4
Direct
  0.5000000000000000  0.5000000000000000  0.4992900098218547
  0.0000000000000000 -0.0000000000000000  0.4992900098218547
  0.2500000000000000  0.2500000000000000  0.4153496626855776
  0.7500000000000000  0.7500000000000000  0.4153496626855776
  0.7500000000000000  0.2500000000000000  0.5853603274925677
  0.2500000000000000  0.7500000000000000  0.5853603274925677
 
  0.00000000E+00  0.00000000E+00  0.00000000E+00
  0.00000000E+00  0.00000000E+00  0.00000000E+00
  0.00000000E+00  0.00000000E+00  0.00000000E+00
  0.00000000E+00  0.00000000E+00  0.00000000E+00
  0.00000000E+00  0.00000000E+00  0.00000000E+00
  0.00000000E+00  0.00000000E+00  0.00000000E+00
