P4                                      
   1.00000000000000     
     3.2972039999999998    0.0000000000000000    0.0000000000000000
     0.0000000000000000    4.9363880000000000   -0.0000530000000000
     0.0000000000000000    0.0000000000000000   20.0243900000000004
   P 
     4
Direct
  0.4999999995431711  0.9010711969502785  0.5513180673796705
  0.5000000004568289  0.0989288030497215  0.4486819326203295
  0.0000000013429064  0.4010668951640935  0.4486819317276538
 -0.0000000013429064  0.5989331048359066  0.5513180682723462
 
  0.00000000E+00  0.00000000E+00  0.00000000E+00
  0.00000000E+00  0.00000000E+00  0.00000000E+00
  0.00000000E+00  0.00000000E+00  0.00000000E+00
  0.00000000E+00  0.00000000E+00  0.00000000E+00
