Ge2 Se4                                 
   1.00000000000000     
     4.8814849999999996    0.0000000000000000    0.0000000000000000
     0.0000000000000000    5.5432759999999996    0.0000000000000000
     0.0000000000000000    0.0000000000000000   18.0792910000000013
   Ge   Se
     2     4
Direct
  0.5000000000000000  0.5000000000000000  0.5000000000000000
 -0.0000000000000000  0.0000000000000000  0.5000000000000000
  0.2500000000000000  0.2500000000000000  0.4147809770594455
  0.7500000000000000  0.7500000000000000  0.4147809770594455
  0.7500000000000000  0.2500000000000000  0.5852190229405545
  0.2500000000000000  0.7500000000000000  0.5852190229405545
 
  0.00000000E+00  0.00000000E+00  0.00000000E+00
  0.00000000E+00  0.00000000E+00  0.00000000E+00
  0.00000000E+00  0.00000000E+00  0.00000000E+00
  0.00000000E+00  0.00000000E+00  0.00000000E+00
  0.00000000E+00  0.00000000E+00  0.00000000E+00
  0.00000000E+00  0.00000000E+00  0.00000000E+00
