P4                                      
   1.00000000000000     
     3.2596859999999999   -0.0373070000000000    0.0000000000000000
    -0.0523120000000000    4.6230549999999999   -0.0000530000000000
     0.0000000000000000    0.0000000000000000   20.0243900000000004
   P 
     4
Direct
  0.5044531237396638  0.9114562947410025  0.5525686679634056
  0.4955468762603362  0.0885437052589974  0.4474313320365943
  0.0044530645113086  0.4114518012301726  0.4474313360786186
 -0.0044530645113086  0.5885481987698274  0.5525686639213814
 
  0.00000000E+00  0.00000000E+00  0.00000000E+00
  0.00000000E+00  0.00000000E+00  0.00000000E+00
  0.00000000E+00  0.00000000E+00  0.00000000E+00
  0.00000000E+00  0.00000000E+00  0.00000000E+00
