P4                                      
   1.00000000000000     
     3.2968329999999999    0.0494640000000000    0.0000000000000000
     0.0693580000000000    4.6228309999999997   -0.0000530000000000
     0.0000000000000000    0.0000000000000000   20.0243900000000004
   P 
     4
Direct
  0.4942493422487699  0.9110035118638216  0.5525159846049998
  0.5057506577512302  0.0889964881361785  0.4474840153950003
 -0.0057505800382737  0.4109990102163734  0.4474840214856697
  0.0057505800382737  0.5890009897836267  0.5525159785143303
 
  0.00000000E+00  0.00000000E+00  0.00000000E+00
  0.00000000E+00  0.00000000E+00  0.00000000E+00
  0.00000000E+00  0.00000000E+00  0.00000000E+00
  0.00000000E+00  0.00000000E+00  0.00000000E+00
