P4                                      
   1.00000000000000     
     3.3462969999999999    0.0000000000000000    0.0000000000000000
     0.0000000000000000    4.6921889999999999   -0.0000530000000000
     0.0000000000000000    0.0000000000000000   20.0243900000000004
   P 
     4
Direct
  0.4999999987328113  0.9079208710058382  0.5521618199312502
  0.5000000012671886  0.0920791289941618  0.4478381800687496
  0.0000000011858178  0.4079162888021684  0.4478381797333992
 -0.0000000011858178  0.5920837111978317  0.5521618202666005
 
  0.00000000E+00  0.00000000E+00  0.00000000E+00
  0.00000000E+00  0.00000000E+00  0.00000000E+00
  0.00000000E+00  0.00000000E+00  0.00000000E+00
  0.00000000E+00  0.00000000E+00  0.00000000E+00
