P4                                      
   1.00000000000000     
     3.2968329999999999   -0.0494640000000000    0.0000000000000000
    -0.0693580000000000    4.6228309999999997   -0.0000530000000000
     0.0000000000000000    0.0000000000000000   20.0243900000000004
   P 
     4
Direct
  0.5057506757566389  0.9110035327620234  0.5525159914461384
  0.4942493242433612  0.0889964672379766  0.4474840085538617
  0.0057505902046956  0.4109990323330005  0.4474840142917687
 -0.0057505902046956  0.5890009676669995  0.5525159857082312
 
  0.00000000E+00  0.00000000E+00  0.00000000E+00
  0.00000000E+00  0.00000000E+00  0.00000000E+00
  0.00000000E+00  0.00000000E+00  0.00000000E+00
  0.00000000E+00  0.00000000E+00  0.00000000E+00
