P4                                      
   1.00000000000000     
     3.2305869999999999    0.0000000000000000    0.0000000000000000
     0.0000000000000000    4.6233510000000004   -0.0000530000000000
     0.0000000000000000    0.0000000000000000   20.0243900000000004
   P 
     4
Direct
  0.5000000019628889  0.9118359801317010  0.5526520266235119
  0.4999999980371111  0.0881640198682990  0.4473479733764882
 -0.0000000020884926  0.4118312852793130  0.4473479799593611
  0.0000000020884926  0.5881687147206870  0.5526520200406390
 
  0.00000000E+00  0.00000000E+00  0.00000000E+00
  0.00000000E+00  0.00000000E+00  0.00000000E+00
  0.00000000E+00  0.00000000E+00  0.00000000E+00
  0.00000000E+00  0.00000000E+00  0.00000000E+00
