P4                                      
   1.00000000000000     
     3.2957190000000001    0.0989610000000000    0.0000000000000000
     0.1387630000000000    4.6212679999999997   -0.0000530000000000
     0.0000000000000000    0.0000000000000000   20.0243900000000004
   P 
     4
Direct
  0.4884412397382747  0.9111791032501678  0.5524980398747948
  0.5115587602617253  0.0888208967498323  0.4475019601252052
 -0.0115585394558789  0.4111743906664840  0.4475019652273400
  0.0115585394558789  0.5888256093335160  0.5524980347726599
 
  0.00000000E+00  0.00000000E+00  0.00000000E+00
  0.00000000E+00  0.00000000E+00  0.00000000E+00
  0.00000000E+00  0.00000000E+00  0.00000000E+00
  0.00000000E+00  0.00000000E+00  0.00000000E+00
