Ge2 Se4                                 
   1.00000000000000     
     4.8069540000000002    0.0000000000000000    0.0000000000000000
     0.0000000000000000    5.4586410000000001    0.0000000000000000
     0.0000000000000000    0.0000000000000000   18.0792910000000013
   Ge   Se
     2     4
Direct
  0.5000000000000000  0.5000000000000000  0.5000000000000000
 -0.0000000000000000  0.0000000000000000  0.5000000000000000
  0.2500000000000000  0.2500000000000000  0.4140395853046722
  0.7500000000000000  0.7500000000000000  0.4140395853046722
  0.7500000000000000  0.2500000000000000  0.5859604146953278
  0.2500000000000000  0.7500000000000000  0.5859604146953278
 
  0.00000000E+00  0.00000000E+00  0.00000000E+00
  0.00000000E+00  0.00000000E+00  0.00000000E+00
  0.00000000E+00  0.00000000E+00  0.00000000E+00
  0.00000000E+00  0.00000000E+00  0.00000000E+00
  0.00000000E+00  0.00000000E+00  0.00000000E+00
  0.00000000E+00  0.00000000E+00  0.00000000E+00
