P4                                      
   1.00000000000000     
     3.3136489999999998    0.0000000000000000    0.0000000000000000
     0.0000000000000000    4.6233510000000004   -0.0000530000000000
     0.0000000000000000    0.0000000000000000   20.0243900000000004
   P 
     4
Direct
  0.5000000005862595  0.9106703829688235  0.5525069763022549
  0.4999999994137406  0.0893296170311765  0.4474930236977451
 -0.0000000005403939  0.4106661833370758  0.4474930280533758
  0.0000000005403939  0.5893338166629242  0.5525069719466241
 
  0.00000000E+00  0.00000000E+00  0.00000000E+00
  0.00000000E+00  0.00000000E+00  0.00000000E+00
  0.00000000E+00  0.00000000E+00  0.00000000E+00
  0.00000000E+00  0.00000000E+00  0.00000000E+00
