P4                                      
   1.00000000000000     
     3.3136489999999998    0.0000000000000000    0.0000000000000000
     0.0000000000000000    4.6464100000000004   -0.0000530000000000
     0.0000000000000000    0.0000000000000000   20.0243900000000004
   P 
     4
Direct
  0.5000000016236711  0.9098251108271443  0.5524294713967424
  0.4999999983763289  0.0901748891728556  0.4475705286032576
 -0.0000000024839527  0.4098206116716639  0.4475705337444590
  0.0000000024839527  0.5901793883283361  0.5524294662555409
 
  0.00000000E+00  0.00000000E+00  0.00000000E+00
  0.00000000E+00  0.00000000E+00  0.00000000E+00
  0.00000000E+00  0.00000000E+00  0.00000000E+00
  0.00000000E+00  0.00000000E+00  0.00000000E+00
