P4                                      
   1.00000000000000     
     3.2970389999999998    0.0329740000000000    0.0000000000000000
     0.0462360000000000    4.6231200000000001   -0.0000530000000000
     0.0000000000000000    0.0000000000000000   20.0243900000000004
   P 
     4
Direct
  0.4961662822439941  0.9109003394875482  0.5525144655047977
  0.5038337177560058  0.0890996605124517  0.4474855344952023
 -0.0038336713916071  0.4108958405163866  0.4474855424253971
  0.0038336713916071  0.5891041594836134  0.5525144575746028
 
  0.00000000E+00  0.00000000E+00  0.00000000E+00
  0.00000000E+00  0.00000000E+00  0.00000000E+00
  0.00000000E+00  0.00000000E+00  0.00000000E+00
  0.00000000E+00  0.00000000E+00  0.00000000E+00
