P4                                      
   1.00000000000000     
     3.2806769999999998    0.0000000000000000    0.0000000000000000
     0.0000000000000000    4.6233510000000004   -0.0000530000000000
     0.0000000000000000    0.0000000000000000   20.0243900000000004
   P 
     4
Direct
  0.5000000046038375  0.9110527873857375  0.5525288242993410
  0.4999999953961624  0.0889472126142625  0.4474711757006590
 -0.0000000048180205  0.4110484624485123  0.4474711829410342
  0.0000000048180205  0.5889515375514877  0.5525288170589658
 
  0.00000000E+00  0.00000000E+00  0.00000000E+00
  0.00000000E+00  0.00000000E+00  0.00000000E+00
  0.00000000E+00  0.00000000E+00  0.00000000E+00
  0.00000000E+00  0.00000000E+00  0.00000000E+00
