Ge2 Se4                                 
   1.00000000000000     
     4.8319250000000000    0.0000000000000000    0.0000000000000000
     0.0000000000000000    5.4869979999999998    0.0000000000000000
     0.0000000000000000    0.0000000000000000   18.0792910000000013
   Ge   Se
     2     4
Direct
  0.5000000000000000  0.5000000000000000  0.5000000000000000
 -0.0000000000000000  0.0000000000000000  0.5000000000000000
  0.2500000000000000  0.2500000000000000  0.4142848140778540
  0.7500000000000000  0.7500000000000000  0.4142848140778540
  0.7500000000000000  0.2500000000000000  0.5857151859221461
  0.2500000000000000  0.7500000000000000  0.5857151859221461
 
  0.00000000E+00  0.00000000E+00  0.00000000E+00
  0.00000000E+00  0.00000000E+00  0.00000000E+00
  0.00000000E+00  0.00000000E+00  0.00000000E+00
  0.00000000E+00  0.00000000E+00  0.00000000E+00
  0.00000000E+00  0.00000000E+00  0.00000000E+00
  0.00000000E+00  0.00000000E+00  0.00000000E+00
