C2                                      
   1.00000000000000     
     2.5044890000000000    0.0367510000000000    0.0000000000000000
    -1.2204180000000000    2.1187480000000001    0.0000000000000000
     0.0000000000000000    0.0000000000000000   15.0000000000000000
   C 
     2
Direct
  0.9992658958287066  0.9997017353857984  0.5000000000000000
  0.3340671041712966  0.6669652646141984  0.5000000000000000
 
  0.00000000E+00  0.00000000E+00  0.00000000E+00
  0.00000000E+00  0.00000000E+00  0.00000000E+00
