P4                                      
   1.00000000000000     
     3.2972039999999998    0.0000000000000000    0.0000000000000000
     0.0000000000000000    4.6001760000000003   -0.0000530000000000
     0.0000000000000000    0.0000000000000000   20.0243900000000004
   P 
     4
Direct
  0.4999999971072636  0.9115680528519724  0.5525674436531245
  0.5000000028927364  0.0884319471480277  0.4474325563468755
  0.0000000028771873  0.4115635305048206  0.4474325624478195
 -0.0000000028771873  0.5884364694951794  0.5525674375521804
 
  0.00000000E+00  0.00000000E+00  0.00000000E+00
  0.00000000E+00  0.00000000E+00  0.00000000E+00
  0.00000000E+00  0.00000000E+00  0.00000000E+00
  0.00000000E+00  0.00000000E+00  0.00000000E+00
