P4                                      
   1.00000000000000     
     3.2965439999999999    0.0659570000000000    0.0000000000000000
     0.0924860000000000    4.6224259999999999   -0.0000530000000000
     0.0000000000000000    0.0000000000000000   20.0243900000000004
   P 
     4
Direct
  0.4922796701571817  0.9109904976209162  0.5525194553113245
  0.5077203298428183  0.0890095023790838  0.4474805446886755
 -0.0077202085447641  0.4109859292135520  0.4474805504601228
  0.0077202085447641  0.5890140707864481  0.5525194495398771
 
  0.00000000E+00  0.00000000E+00  0.00000000E+00
  0.00000000E+00  0.00000000E+00  0.00000000E+00
  0.00000000E+00  0.00000000E+00  0.00000000E+00
  0.00000000E+00  0.00000000E+00  0.00000000E+00
