C2                                      
   1.00000000000000     
     2.4399289999999998   -0.0279250000000000    0.0000000000000000
    -1.2441480000000000    2.1511860000000000    0.0000000000000000
     0.0000000000000000    0.0000000000000000   15.0000000000000000
   C 
     2
Direct
  0.0008372624379639  0.0003870607514238  0.5000000000000000
  0.3324957375620394  0.6662799392485730  0.5000000000000000
 
  0.00000000E+00  0.00000000E+00  0.00000000E+00
  0.00000000E+00  0.00000000E+00  0.00000000E+00
