P4                                      
   1.00000000000000     
     3.3217500000000002    0.0246380000000000    0.0000000000000000
     0.0345470000000000    4.6232220000000002   -0.0000530000000000
     0.0000000000000000    0.0000000000000000   20.0243900000000004
   P 
     4
Direct
  0.4971763502252388  0.9105287588411488  0.5524760590299622
  0.5028236497747612  0.0894712411588512  0.4475239409700377
 -0.0028236152173754  0.4105242443611803  0.4475239472459878
  0.0028236152173754  0.5894757556388196  0.5524760527540122
 
  0.00000000E+00  0.00000000E+00  0.00000000E+00
  0.00000000E+00  0.00000000E+00  0.00000000E+00
  0.00000000E+00  0.00000000E+00  0.00000000E+00
  0.00000000E+00  0.00000000E+00  0.00000000E+00
