P4                                      
   1.00000000000000     
     3.3300130000000001    0.0000000000000000    0.0000000000000000
     0.0000000000000000    4.6693559999999996   -0.0000530000000000
     0.0000000000000000    0.0000000000000000   20.0243900000000004
   P 
     4
Direct
  0.4999999993752853  0.9088491692809050  0.5522792946418793
  0.5000000006247148  0.0911508307190951  0.4477207053581208
  0.0000000019152069  0.4088445481998787  0.4477207069688963
 -0.0000000019152069  0.5911554518001213  0.5522792930311038
 
  0.00000000E+00  0.00000000E+00  0.00000000E+00
  0.00000000E+00  0.00000000E+00  0.00000000E+00
  0.00000000E+00  0.00000000E+00  0.00000000E+00
  0.00000000E+00  0.00000000E+00  0.00000000E+00
