P4                                      
   1.00000000000000     
     3.4581369999999998    0.0000000000000000    0.0000000000000000
     0.0000000000000000    4.6233510000000004   -0.0000530000000000
     0.0000000000000000    0.0000000000000000   20.0243900000000004
   P 
     4
Direct
  0.5000000039380118  0.9088582689789914  0.5521897622209055
  0.4999999960619880  0.0911417310210086  0.4478102377790945
  0.0000000012507002  0.4088536057404398  0.4478102363423071
 -0.0000000012507002  0.5911463942595603  0.5521897636576928
 
  0.00000000E+00  0.00000000E+00  0.00000000E+00
  0.00000000E+00  0.00000000E+00  0.00000000E+00
  0.00000000E+00  0.00000000E+00  0.00000000E+00
  0.00000000E+00  0.00000000E+00  0.00000000E+00
