P4                                      
   1.00000000000000     
     3.3340909999999999    0.0000000000000000    0.0000000000000000
     0.0000000000000000    4.6750740000000004   -0.0000530000000000
     0.0000000000000000    0.0000000000000000   20.0243900000000004
   P 
     4
Direct
  0.5000000014567462  0.9086070347871618  0.5522496156117110
  0.4999999985432538  0.0913929652128383  0.4477503843882888
 -0.0000000000250344  0.4086024196692891  0.4477503863506065
  0.0000000000250344  0.5913975803307109  0.5522496136493935
 
  0.00000000E+00  0.00000000E+00  0.00000000E+00
  0.00000000E+00  0.00000000E+00  0.00000000E+00
  0.00000000E+00  0.00000000E+00  0.00000000E+00
  0.00000000E+00  0.00000000E+00  0.00000000E+00
