P4                                      
   1.00000000000000     
     3.2970389999999998   -0.0329740000000000    0.0000000000000000
    -0.0462360000000000    4.6231200000000001   -0.0000530000000000
     0.0000000000000000    0.0000000000000000   20.0243900000000004
   P 
     4
Direct
  0.5038337268240607  0.9109003353866170  0.5525144637475385
  0.4961662731759394  0.0890996646133831  0.4474855362524614
  0.0038336750366566  0.4108958297006889  0.4474855409476875
 -0.0038336750366566  0.5891041702993111  0.5525144590523124
 
  0.00000000E+00  0.00000000E+00  0.00000000E+00
  0.00000000E+00  0.00000000E+00  0.00000000E+00
  0.00000000E+00  0.00000000E+00  0.00000000E+00
  0.00000000E+00  0.00000000E+00  0.00000000E+00
