C2                                      
   1.00000000000000     
     2.4212950000000002    0.0000000000000000    0.0000000000000000
    -1.2106470000000000    2.1373609999999998    0.0000000000000000
     0.0000000000000000    0.0000000000000000   15.0000000000000000
   C 
     2
Direct
  0.0002036893300712  0.0004073786601353  0.5000000000000000
  0.3331293106699320  0.6662596213398615  0.5000000000000000
 
  0.00000000E+00  0.00000000E+00  0.00000000E+00
  0.00000000E+00  0.00000000E+00  0.00000000E+00
