ALGO = Normal
EDIFF = 1e-05
EDIFFG = -0.005
ENCUT = 520
IBRION = 2
ICHARG = 2
ISIF = 2
ISMEAR = 0
ISPIN = 1
ISTART = 1
LCHARG = False
LREAL = Auto
LVHAR = False
LWAVE = False
MAGMOM = 2*0.6
NELM = 250
NELMDL = -5
NELMIN = 6
NPAR = 6
NSW = 0
POTIM = 0.25
PREC = A
SIGMA = 0.02
