Ge2 Se4                                 
   1.00000000000000     
     4.9058320000000002    0.0490630000000000    0.0000000000000000
     0.0557150000000000    5.5709229999999996    0.0000000000000000
     0.0000000000000000    0.0000000000000000   18.0792910000000013
   Ge   Se
     2     4
Direct
  0.5000000000000000  0.5000000000000000  0.4996472052765872
  0.0000000000000000  0.0000000000000000  0.4996472052765872
  0.2500000000000000  0.2500000000000000  0.4151957681009358
  0.7500000000000000  0.7500000000000000  0.4151957681009358
  0.7500000000000000  0.2500000000000000  0.5851570266224770
  0.2500000000000000  0.7500000000000000  0.5851570266224770
 
  0.00000000E+00  0.00000000E+00  0.00000000E+00
  0.00000000E+00  0.00000000E+00  0.00000000E+00
  0.00000000E+00  0.00000000E+00  0.00000000E+00
  0.00000000E+00  0.00000000E+00  0.00000000E+00
  0.00000000E+00  0.00000000E+00  0.00000000E+00
  0.00000000E+00  0.00000000E+00  0.00000000E+00
