Ge2 Se4
1.0
4.905832 0.049063 0.000000
0.055715 5.570923 0.000000
0.000000 0.000000 18.079291
Ge Se
2 4
direct
0.500000 0.500000 0.500000 Ge
0.000000 -0.000000 0.500000 Ge
0.250000 0.250000 0.415026 Se
0.750000 0.750000 0.415026 Se
0.750000 0.250000 0.584974 Se
0.250000 0.750000 0.584974 Se
