C2                                      
   1.00000000000000     
     2.5289600000000001    0.0000000000000000    0.0000000000000000
    -1.2644800000000000    2.1373609999999998    0.0000000000000000
     0.0000000000000000    0.0000000000000000   15.0000000000000000
   C 
     2
Direct
  0.9998110073359356  0.9996220146718713  0.5000000000000000
  0.3335219926640676  0.6670449853281255  0.5000000000000000
 
  0.00000000E+00  0.00000000E+00  0.00000000E+00
  0.00000000E+00  0.00000000E+00  0.00000000E+00
