P4                                      
   1.00000000000000     
     3.2972039999999998    0.0000000000000000    0.0000000000000000
     0.0000000000000000    4.7149109999999999   -0.0000530000000000
     0.0000000000000000    0.0000000000000000   20.0243900000000004
   P 
     4
Direct
  0.5000000032564026  0.9078633704530700  0.5521825211275808
  0.4999999967435975  0.0921366295469302  0.4478174788724192
 -0.0000000034343847  0.4078588072298088  0.4478174795299717
  0.0000000034343847  0.5921411927701913  0.5521825204700282
 
  0.00000000E+00  0.00000000E+00  0.00000000E+00
  0.00000000E+00  0.00000000E+00  0.00000000E+00
  0.00000000E+00  0.00000000E+00  0.00000000E+00
  0.00000000E+00  0.00000000E+00  0.00000000E+00
