P4                                      
   1.00000000000000     
     3.5511970000000002    0.0000000000000000    0.0000000000000000
     0.0000000000000000    4.6233510000000004   -0.0000530000000000
     0.0000000000000000    0.0000000000000000   20.0243900000000004
   P 
     4
Direct
  0.5000000009714904  0.9080351005210328  0.5520091773282574
  0.4999999990285095  0.0919648994789673  0.4479908226717426
 -0.0000000024915601  0.4080304553455251  0.4479908196904673
  0.0000000024915601  0.5919695446544749  0.5520091803095326
 
  0.00000000E+00  0.00000000E+00  0.00000000E+00
  0.00000000E+00  0.00000000E+00  0.00000000E+00
  0.00000000E+00  0.00000000E+00  0.00000000E+00
  0.00000000E+00  0.00000000E+00  0.00000000E+00
