P4                                      
   1.00000000000000     
     3.2890760000000001    0.2313750000000000    0.0000000000000000
     0.3244340000000000    4.6119539999999999   -0.0000530000000000
     0.0000000000000000    0.0000000000000000   20.0243900000000004
   P 
     4
Direct
  0.4727674004121314  0.9126884064649115  0.5522668205647072
  0.5272325995878686  0.0873115935350887  0.4477331794352927
 -0.0272318873500440  0.4126834141091748  0.4477331857851615
  0.0272318873500440  0.5873165858908252  0.5522668142148387
 
  0.00000000E+00  0.00000000E+00  0.00000000E+00
  0.00000000E+00  0.00000000E+00  0.00000000E+00
  0.00000000E+00  0.00000000E+00  0.00000000E+00
  0.00000000E+00  0.00000000E+00  0.00000000E+00
