P4                                      
   1.00000000000000     
     3.4265550000000000    0.0000000000000000    0.0000000000000000
     0.0000000000000000    4.6233510000000004   -0.0000530000000000
     0.0000000000000000    0.0000000000000000   20.0243900000000004
   P 
     4
Direct
  0.5000000009548656  0.9091789570381782  0.5522508651408800
  0.4999999990451344  0.0908210429618218  0.4477491348591200
  0.0000000025336634  0.4091742863373728  0.4477491355088202
 -0.0000000025336634  0.5908257136626273  0.5522508644911798
 
  0.00000000E+00  0.00000000E+00  0.00000000E+00
  0.00000000E+00  0.00000000E+00  0.00000000E+00
  0.00000000E+00  0.00000000E+00  0.00000000E+00
  0.00000000E+00  0.00000000E+00  0.00000000E+00
