P4                                      
   1.00000000000000     
     3.4894330000000000    0.0000000000000000    0.0000000000000000
     0.0000000000000000    4.6233510000000004   -0.0000530000000000
     0.0000000000000000    0.0000000000000000   20.0243900000000004
   P 
     4
Direct
  0.4999999984223464  0.9085487814624410  0.5521285013676909
  0.5000000015776537  0.0914512185375590  0.4478714986323094
  0.0000000010001652  0.4085441312764522  0.4478714952948418
 -0.0000000010001652  0.5914558687235478  0.5521285047051582
 
  0.00000000E+00  0.00000000E+00  0.00000000E+00
  0.00000000E+00  0.00000000E+00  0.00000000E+00
  0.00000000E+00  0.00000000E+00  0.00000000E+00
  0.00000000E+00  0.00000000E+00  0.00000000E+00
