P4                                      
   1.00000000000000     
     3.3946790000000000    0.0000000000000000    0.0000000000000000
     0.0000000000000000    4.6233510000000004   -0.0000530000000000
     0.0000000000000000    0.0000000000000000   20.0243900000000004
   P 
     4
Direct
  0.4999999993306849  0.9095364908151067  0.5523138060200502
  0.5000000006693152  0.0904635091848933  0.4476861939799498
  0.0000000000117282  0.4095318164451766  0.4476861952429950
 -0.0000000000117282  0.5904681835548234  0.5523138047570050
 
  0.00000000E+00  0.00000000E+00  0.00000000E+00
  0.00000000E+00  0.00000000E+00  0.00000000E+00
  0.00000000E+00  0.00000000E+00  0.00000000E+00
  0.00000000E+00  0.00000000E+00  0.00000000E+00
