P4                                      
   1.00000000000000     
     3.5204510000000000    0.0000000000000000    0.0000000000000000
     0.0000000000000000    4.9363880000000000   -0.0000530000000000
     0.0000000000000000    0.0000000000000000   20.0243900000000004
   P 
     4
Direct
  0.5000000199875192  0.8988374607823205  0.5508376517381398
  0.4999999800124809  0.1011625392176796  0.4491623482618602
 -0.0000000208352046  0.3988332556367961  0.4491623492902375
  0.0000000208352046  0.6011667443632038  0.5508376507097625
 
  0.00000000E+00  0.00000000E+00  0.00000000E+00
  0.00000000E+00  0.00000000E+00  0.00000000E+00
  0.00000000E+00  0.00000000E+00  0.00000000E+00
  0.00000000E+00  0.00000000E+00  0.00000000E+00
