P4                                      
   1.00000000000000     
     3.2723819999999999    0.0000000000000000    0.0000000000000000
     0.0000000000000000    4.5885449999999999   -0.0000530000000000
     0.0000000000000000    0.0000000000000000   20.0243900000000004
   P 
     4
Direct
  0.5000000018418614  0.9123236543577686  0.5526830925741432
  0.4999999981581385  0.0876763456422314  0.4473169074258568
 -0.0000000000851597  0.4123189230734262  0.4473169130016938
  0.0000000000851597  0.5876810769265739  0.5526830869983062
 
  0.00000000E+00  0.00000000E+00  0.00000000E+00
  0.00000000E+00  0.00000000E+00  0.00000000E+00
  0.00000000E+00  0.00000000E+00  0.00000000E+00
  0.00000000E+00  0.00000000E+00  0.00000000E+00
