P4                                      
   1.00000000000000     
     3.2972039999999998    0.0000000000000000    0.0000000000000000
     0.0000000000000000    4.8928950000000002   -0.0000530000000000
     0.0000000000000000    0.0000000000000000   20.0243900000000004
   P 
     4
Direct
  0.4999999998153685  0.9023647894353468  0.5514944130933827
  0.5000000001846313  0.0976352105646530  0.4485055869066173
  0.0000000023087286  0.4023604192605839  0.4485055880598976
 -0.0000000023087286  0.5976395807394160  0.5514944119401024
 
  0.00000000E+00  0.00000000E+00  0.00000000E+00
  0.00000000E+00  0.00000000E+00  0.00000000E+00
  0.00000000E+00  0.00000000E+00  0.00000000E+00
  0.00000000E+00  0.00000000E+00  0.00000000E+00
