P4                                      
   1.00000000000000     
     3.5204510000000000    0.0000000000000000    0.0000000000000000
     0.0000000000000000    4.6233510000000004   -0.0000530000000000
     0.0000000000000000    0.0000000000000000   20.0243900000000004
   P 
     4
Direct
  0.5000000014490206  0.9082767530832883  0.5520684924835753
  0.4999999985509795  0.0917232469167118  0.4479315075164246
 -0.0000000002918492  0.4082721060338278  0.4479315039945708
  0.0000000002918492  0.5917278939661723  0.5520684960054293
 
  0.00000000E+00  0.00000000E+00  0.00000000E+00
  0.00000000E+00  0.00000000E+00  0.00000000E+00
  0.00000000E+00  0.00000000E+00  0.00000000E+00
  0.00000000E+00  0.00000000E+00  0.00000000E+00
