P4                                      
   1.00000000000000     
     3.2598989999999999    0.0000000000000000    0.0000000000000000
     0.0000000000000000    4.5710420000000003   -0.0000530000000000
     0.0000000000000000    0.0000000000000000   20.0243900000000004
   P 
     4
Direct
  0.4999999988126660  0.9131091699731295  0.5527680358230964
  0.5000000011873339  0.0868908300268705  0.4472319641769035
 -0.0000000002499255  0.4131043998846581  0.4472319688024614
  0.0000000002499255  0.5868956001153419  0.5527680311975386
 
  0.00000000E+00  0.00000000E+00  0.00000000E+00
  0.00000000E+00  0.00000000E+00  0.00000000E+00
  0.00000000E+00  0.00000000E+00  0.00000000E+00
  0.00000000E+00  0.00000000E+00  0.00000000E+00
