P4                                      
   1.00000000000000     
     3.3218410000000000    0.0000000000000000    0.0000000000000000
     0.0000000000000000    4.6578970000000002   -0.0000530000000000
     0.0000000000000000    0.0000000000000000   20.0243900000000004
   P 
     4
Direct
  0.4999999972858827  0.9093371195800736  0.5523383026270627
  0.5000000027141170  0.0906628804199263  0.4476616973729373
  0.0000000009053820  0.4093324286744764  0.4476617099088441
 -0.0000000009053820  0.5906675713255235  0.5523382900911560
 
  0.00000000E+00  0.00000000E+00  0.00000000E+00
  0.00000000E+00  0.00000000E+00  0.00000000E+00
  0.00000000E+00  0.00000000E+00  0.00000000E+00
  0.00000000E+00  0.00000000E+00  0.00000000E+00
