C2                                      
   1.00000000000000     
     2.4772330000000000    0.0092380000000000    0.0000000000000000
    -1.2306159999999999    2.1327270000000000    0.0000000000000000
     0.0000000000000000    0.0000000000000000   15.0000000000000000
   C 
     2
Direct
  0.0003522750961977  0.0001582811056338  0.5000000000000000
  0.3329807249038055  0.6665087188943630  0.5000000000000000
 
  0.00000000E+00  0.00000000E+00  0.00000000E+00
  0.00000000E+00  0.00000000E+00  0.00000000E+00
