Ge2 Se4                                 
   1.00000000000000     
     4.9060769999999998    0.0000000000000000    0.0000000000000000
     0.0000000000000000    5.6541519999999998    0.0000000000000000
     0.0000000000000000    0.0000000000000000   18.0792910000000013
   Ge   Se
     2     4
Direct
  0.5000000000000000  0.5000000000000000  0.5000000000000000
  0.0000000000000000 -0.0000000000000000  0.5000000000000000
  0.2500000000000000  0.2500000000000000  0.4154294906147214
  0.7500000000000000  0.7500000000000000  0.4154294906147214
  0.7500000000000000  0.2500000000000000  0.5845705093852785
  0.2500000000000000  0.7500000000000000  0.5845705093852785
 
  0.00000000E+00  0.00000000E+00  0.00000000E+00
  0.00000000E+00  0.00000000E+00  0.00000000E+00
  0.00000000E+00  0.00000000E+00  0.00000000E+00
  0.00000000E+00  0.00000000E+00  0.00000000E+00
  0.00000000E+00  0.00000000E+00  0.00000000E+00
  0.00000000E+00  0.00000000E+00  0.00000000E+00
