P4                                      
   1.00000000000000     
     3.2912420000000000    0.1981910000000000    0.0000000000000000
     0.2779040000000000    4.6149909999999998   -0.0000530000000000
     0.0000000000000000    0.0000000000000000   20.0243900000000004
   P 
     4
Direct
  0.4768209152609846  0.9121759151692012  0.5523515309043044
  0.5231790847390153  0.0878240848307989  0.4476484690956956
 -0.0231785131987722  0.4121709880663062  0.4476484755831457
  0.0231785131987722  0.5878290119336939  0.5523515244168541
 
  0.00000000E+00  0.00000000E+00  0.00000000E+00
  0.00000000E+00  0.00000000E+00  0.00000000E+00
  0.00000000E+00  0.00000000E+00  0.00000000E+00
  0.00000000E+00  0.00000000E+00  0.00000000E+00
