C2                                      
   1.00000000000000     
     2.5138609999999999    0.0000000000000000    0.0000000000000000
    -1.2569310000000000    2.1373609999999998    0.0000000000000000
     0.0000000000000000    0.0000000000000000   15.0000000000000000
   C 
     2
Direct
  0.9999320409655823  0.9998640819311575  0.5000000000000000
  0.3334009590344209  0.6668029180688393  0.5000000000000000
 
  0.00000000E+00  0.00000000E+00  0.00000000E+00
  0.00000000E+00  0.00000000E+00  0.00000000E+00
