C2                                      
   1.00000000000000     
     2.5138609999999999    0.0000000000000000    0.0000000000000000
    -1.2569310000000000    2.1373609999999998    0.0000000000000000
     0.0000000000000000    0.0000000000000000   15.0000000000000000
   C 
     2
Direct
 -0.0000679590344210 -0.0001359180688420  0.5000000000000000
  0.3334009590344242  0.6668029180688387  0.5000000000000000
 
  0.00000000E+00  0.00000000E+00  0.00000000E+00
  0.00000000E+00  0.00000000E+00  0.00000000E+00
