P4                                      
   1.00000000000000     
     3.2930700000000002    0.1650670000000000    0.0000000000000000
     0.2314580000000000    4.6175540000000002   -0.0000530000000000
     0.0000000000000000    0.0000000000000000   20.0243900000000004
   P 
     4
Direct
  0.4807317747898842  0.9117555274987755  0.5523980506863968
  0.5192682252101157  0.0882444725012244  0.4476019493136033
 -0.0192677517184752  0.4117506040836471  0.4476019539963318
  0.0192677517184752  0.5882493959163529  0.5523980460036683
 
  0.00000000E+00  0.00000000E+00  0.00000000E+00
  0.00000000E+00  0.00000000E+00  0.00000000E+00
  0.00000000E+00  0.00000000E+00  0.00000000E+00
  0.00000000E+00  0.00000000E+00  0.00000000E+00
