C2                                      
   1.00000000000000     
     2.4493610000000001   -0.0185810000000000    0.0000000000000000
    -1.2407720000000000    2.1465900000000002    0.0000000000000000
     0.0000000000000000    0.0000000000000000   15.0000000000000000
   C 
     2
Direct
  0.0002494140816512  0.0001182141905392  0.5000000000000000
  0.3330835859183520  0.6665487858094576  0.5000000000000000
 
  0.00000000E+00  0.00000000E+00  0.00000000E+00
  0.00000000E+00  0.00000000E+00  0.00000000E+00
