C2                                      
   1.00000000000000     
     2.4986720000000000    0.0000000000000000    0.0000000000000000
    -1.2493360000000000    2.1373609999999998    0.0000000000000000
     0.0000000000000000    0.0000000000000000   15.0000000000000000
   C 
     2
Direct
  0.0000668644364597  0.0001337288729194  0.5000000000000000
  0.3332661355635435  0.6665332711270773  0.5000000000000000
 
  0.00000000E+00  0.00000000E+00  0.00000000E+00
  0.00000000E+00  0.00000000E+00  0.00000000E+00
