P4                                      
   1.00000000000000     
     3.2865669999999998    0.2646300000000000    0.0000000000000000
     0.3710650000000000    4.6084360000000002   -0.0000530000000000
     0.0000000000000000    0.0000000000000000   20.0243900000000004
   P 
     4
Direct
  0.4687223552561311  0.9132714324856166  0.5521924555423192
  0.5312776447438690  0.0867285675143833  0.4478075444576810
 -0.0312768309308581  0.4132664148156590  0.4478075522227992
  0.0312768309308581  0.5867335851843410  0.5521924477772008
 
  0.00000000E+00  0.00000000E+00  0.00000000E+00
  0.00000000E+00  0.00000000E+00  0.00000000E+00
  0.00000000E+00  0.00000000E+00  0.00000000E+00
  0.00000000E+00  0.00000000E+00  0.00000000E+00
