C2                                      
   1.00000000000000     
     2.4055209999999998    0.0000000000000000    0.0000000000000000
    -1.2027600000000001    2.1373609999999998    0.0000000000000000
     0.0000000000000000    0.0000000000000000   15.0000000000000000
   C 
     2
Direct
  0.0004222788762637  0.0008445577525274  0.5000000000000000
  0.3329107211237395  0.6658224422474694  0.5000000000000000
 
  0.00000000E+00  0.00000000E+00  0.00000000E+00
  0.00000000E+00  0.00000000E+00  0.00000000E+00
