Ge2 Se4                                 
   1.00000000000000     
     4.9548949999999996    0.0000000000000000    0.0000000000000000
     0.0000000000000000    5.6266379999999998    0.0000000000000000
     0.0000000000000000    0.0000000000000000   18.0792910000000013
   Ge   Se
     2     4
Direct
  0.5000000000000000  0.5000000000000000  0.5000000000000000
  0.0000000000000000 -0.0000000000000000  0.5000000000000000
  0.2500000000000000  0.2500000000000000  0.4155291588090957
  0.7500000000000000  0.7500000000000000  0.4155291588090957
  0.7500000000000000  0.2500000000000000  0.5844708411909043
  0.2500000000000000  0.7500000000000000  0.5844708411909043
 
  0.00000000E+00  0.00000000E+00  0.00000000E+00
  0.00000000E+00  0.00000000E+00  0.00000000E+00
  0.00000000E+00  0.00000000E+00  0.00000000E+00
  0.00000000E+00  0.00000000E+00  0.00000000E+00
  0.00000000E+00  0.00000000E+00  0.00000000E+00
  0.00000000E+00  0.00000000E+00  0.00000000E+00
