P4                                      
   1.00000000000000     
     3.2805070000000001    0.3313990000000000    0.0000000000000000
     0.4646880000000000    4.5999390000000000   -0.0000530000000000
     0.0000000000000000    0.0000000000000000   20.0243900000000004
   P 
     4
Direct
  0.4603942388810232  0.9146943135013860  0.5520158788951339
  0.5396057611189767  0.0853056864986140  0.4479841211048661
 -0.0396047169296000  0.4146892375899219  0.4479841308344782
  0.0396047169296000  0.5853107624100782  0.5520158691655218
 
  0.00000000E+00  0.00000000E+00  0.00000000E+00
  0.00000000E+00  0.00000000E+00  0.00000000E+00
  0.00000000E+00  0.00000000E+00  0.00000000E+00
  0.00000000E+00  0.00000000E+00  0.00000000E+00
