P4                                      
   1.00000000000000     
     3.2305869999999999    0.0000000000000000    0.0000000000000000
     0.0000000000000000    4.5299399999999999   -0.0000530000000000
     0.0000000000000000    0.0000000000000000   20.0243900000000004
   P 
     4
Direct
  0.4999999985341265  0.9149454013998158  0.5529627816231937
  0.5000000014658735  0.0850545986001841  0.4470372183768063
  0.0000000003112092  0.4149405801483784  0.4470372234614171
 -0.0000000003112092  0.5850594198516217  0.5529627765385828
 
  0.00000000E+00  0.00000000E+00  0.00000000E+00
  0.00000000E+00  0.00000000E+00  0.00000000E+00
  0.00000000E+00  0.00000000E+00  0.00000000E+00
  0.00000000E+00  0.00000000E+00  0.00000000E+00
