P4                                      
   1.00000000000000     
     3.2806769999999998    0.0000000000000000    0.0000000000000000
     0.0000000000000000    4.6001760000000003   -0.0000530000000000
     0.0000000000000000    0.0000000000000000   20.0243900000000004
   P 
     4
Direct
  0.5000000007028915  0.9118177919214090  0.5526265368807632
  0.4999999992971084  0.0881822080785911  0.4473734631192368
 -0.0000000012736258  0.4118130803892162  0.4473734692304197
  0.0000000012736258  0.5881869196107838  0.5526265307695802
 
  0.00000000E+00  0.00000000E+00  0.00000000E+00
  0.00000000E+00  0.00000000E+00  0.00000000E+00
  0.00000000E+00  0.00000000E+00  0.00000000E+00
  0.00000000E+00  0.00000000E+00  0.00000000E+00
