P4                                      
   1.00000000000000     
     3.3095219999999999    0.0123420000000000    0.0000000000000000
     0.0173050000000000    4.6233190000000004   -0.0000530000000000
     0.0000000000000000    0.0000000000000000   20.0243900000000004
   P 
     4
Direct
  0.4985676039830599  0.9106774671700144  0.5525008249911854
  0.5014323960169400  0.0893225328299856  0.4474991750088147
 -0.0014323859655865  0.4106731203974006  0.4474991810071648
  0.0014323859655865  0.5893268796025993  0.5525008189928352
 
  0.00000000E+00  0.00000000E+00  0.00000000E+00
  0.00000000E+00  0.00000000E+00  0.00000000E+00
  0.00000000E+00  0.00000000E+00  0.00000000E+00
  0.00000000E+00  0.00000000E+00  0.00000000E+00
