P4
1.0
3.318729 -0.000000 0.000000
-0.000000 4.573114 -0.000053
0.000000 0.000000 20.024390
P
4
direct
0.500000 0.913438 0.553194 P
0.500000 0.086562 0.446806 P
1.000000 0.413427 0.446805 P
0.000000 0.586573 0.553195 P
