C2                                      
   1.00000000000000     
     2.4863849999999998    0.0184420000000000    0.0000000000000000
    -1.2272209999999999    2.1280800000000002    0.0000000000000000
     0.0000000000000000    0.0000000000000000   15.0000000000000000
   C 
     2
Direct
  0.9999387657139707  0.9999766698208816  0.5000000000000000
  0.3333942342860325  0.6666903301791152  0.5000000000000000
 
  0.00000000E+00  0.00000000E+00  0.00000000E+00
  0.00000000E+00  0.00000000E+00  0.00000000E+00
