C2                                      
   1.00000000000000     
     2.4863849999999998    0.0184420000000000    0.0000000000000000
    -1.2272209999999999    2.1280800000000002    0.0000000000000000
     0.0000000000000000    0.0000000000000000   15.0000000000000000
   C 
     2
Direct
 -0.0000612342860271 -0.0000233301791182  0.5000000000000000
  0.3333942342860304  0.6666903301791149  0.5000000000000000
 
  0.00000000E+00  0.00000000E+00  0.00000000E+00
  0.00000000E+00  0.00000000E+00  0.00000000E+00
