P4                                      
   1.00000000000000     
     3.2469869999999998   -0.0498400000000000    0.0000000000000000
    -0.0698860000000000    4.6228230000000003   -0.0000530000000000
     0.0000000000000000    0.0000000000000000   20.0243900000000004
   P 
     4
Direct
  0.5060374042247713  0.9116453014419904  0.5525966302861081
  0.4939625957752286  0.0883546985580096  0.4474033697138919
  0.0060373116871357  0.4116407547800371  0.4474033742787343
 -0.0060373116871357  0.5883592452199629  0.5525966257212658
 
  0.00000000E+00  0.00000000E+00  0.00000000E+00
  0.00000000E+00  0.00000000E+00  0.00000000E+00
  0.00000000E+00  0.00000000E+00  0.00000000E+00
  0.00000000E+00  0.00000000E+00  0.00000000E+00
