P4                                      
   1.00000000000000     
     3.6119059999999998    0.0000000000000000    0.0000000000000000
     0.0000000000000000    5.0646269999999998   -0.0000530000000000
     0.0000000000000000    0.0000000000000000   20.0243900000000004
   P 
     4
Direct
  0.5000000002015919  0.8947450377791258  0.5500111007310389
  0.4999999997984081  0.1052549622208742  0.4499888992689610
 -0.0000000008909526  0.3947410001664905  0.4499888986168663
  0.0000000008909526  0.6052589998335095  0.5500111013831337
 
  0.00000000E+00  0.00000000E+00  0.00000000E+00
  0.00000000E+00  0.00000000E+00  0.00000000E+00
  0.00000000E+00  0.00000000E+00  0.00000000E+00
  0.00000000E+00  0.00000000E+00  0.00000000E+00
