P4                                      
   1.00000000000000     
     3.3625020000000001    0.0000000000000000    0.0000000000000000
     0.0000000000000000    4.6233510000000004   -0.0000530000000000
     0.0000000000000000    0.0000000000000000   20.0243900000000004
   P 
     4
Direct
  0.4999999990275651  0.9099176585470372  0.5524038406156374
  0.5000000009724349  0.0900823414529628  0.4475961593843625
  0.0000000020850821  0.4099131012154653  0.4475961628678272
 -0.0000000020850821  0.5900868987845347  0.5524038371321729
 
  0.00000000E+00  0.00000000E+00  0.00000000E+00
  0.00000000E+00  0.00000000E+00  0.00000000E+00
  0.00000000E+00  0.00000000E+00  0.00000000E+00
  0.00000000E+00  0.00000000E+00  0.00000000E+00
