P4                                      
   1.00000000000000     
     3.2972039999999998    0.0000000000000000    0.0000000000000000
     0.0000000000000000    4.6693559999999996   -0.0000530000000000
     0.0000000000000000    0.0000000000000000   20.0243900000000004
   P 
     4
Direct
  0.5000000039492496  0.9093125670616569  0.5523490373713317
  0.4999999960507504  0.0906874329383431  0.4476509626286684
 -0.0000000019241123  0.4093079441094444  0.4476509660196872
  0.0000000019241123  0.5906920558905555  0.5523490339803128
 
  0.00000000E+00  0.00000000E+00  0.00000000E+00
  0.00000000E+00  0.00000000E+00  0.00000000E+00
  0.00000000E+00  0.00000000E+00  0.00000000E+00
  0.00000000E+00  0.00000000E+00  0.00000000E+00
