C2                                      
   1.00000000000000     
     2.4833889999999998    0.0000000000000000    0.0000000000000000
    -1.2416950000000000    2.1373609999999998    0.0000000000000000
     0.0000000000000000    0.0000000000000000   15.0000000000000000
   C 
     2
Direct
  0.0002276072491273  0.0004552144982545  0.5000000000000000
  0.3331053927508759  0.6662117855017422  0.5000000000000000
 
  0.00000000E+00  0.00000000E+00  0.00000000E+00
  0.00000000E+00  0.00000000E+00  0.00000000E+00
