Ge2 Se4                                 
   1.00000000000000     
     4.9060160000000002   -0.0245310000000000    0.0000000000000000
    -0.0278560000000000    5.5711320000000004    0.0000000000000000
     0.0000000000000000    0.0000000000000000   18.0792910000000013
   Ge   Se
     2     4
Direct
  0.5000000000000000  0.5000000000000000  0.5001574787146927
  0.0000000000000000 -0.0000000000000000  0.5001574787146927
  0.2500000000000000  0.2500000000000000  0.4149468706125773
  0.7500000000000000  0.7500000000000000  0.4149468706125773
  0.7500000000000000  0.2500000000000000  0.5848956506727301
  0.2500000000000000  0.7500000000000000  0.5848956506727301
 
  0.00000000E+00  0.00000000E+00  0.00000000E+00
  0.00000000E+00  0.00000000E+00  0.00000000E+00
  0.00000000E+00  0.00000000E+00  0.00000000E+00
  0.00000000E+00  0.00000000E+00  0.00000000E+00
  0.00000000E+00  0.00000000E+00  0.00000000E+00
  0.00000000E+00  0.00000000E+00  0.00000000E+00
