P4                                      
   1.00000000000000     
     3.5816800000000000    0.0000000000000000    0.0000000000000000
     0.0000000000000000    4.6233510000000004   -0.0000530000000000
     0.0000000000000000    0.0000000000000000   20.0243900000000004
   P 
     4
Direct
  0.5000000009268388  0.9078389110166906  0.5519530994448125
  0.4999999990731612  0.0921610889833094  0.4480469005551875
  0.0000000000419794  0.4078342904036766  0.4480468961397859
 -0.0000000000419794  0.5921657095963234  0.5519531038602141
 
  0.00000000E+00  0.00000000E+00  0.00000000E+00
  0.00000000E+00  0.00000000E+00  0.00000000E+00
  0.00000000E+00  0.00000000E+00  0.00000000E+00
  0.00000000E+00  0.00000000E+00  0.00000000E+00
