P4                                      
   1.00000000000000     
     3.3338869999999998    0.0368890000000000    0.0000000000000000
     0.0517270000000000    4.6230620000000000   -0.0000530000000000
     0.0000000000000000    0.0000000000000000   20.0243900000000004
   P 
     4
Direct
  0.4958116843602292  0.9104244581051710  0.5524578078491218
  0.5041883156397708  0.0895755418948289  0.4475421921508781
 -0.0041882523313499  0.4104199394702714  0.4475421975533805
  0.0041882523313499  0.5895800605297287  0.5524578024466195
 
  0.00000000E+00  0.00000000E+00  0.00000000E+00
  0.00000000E+00  0.00000000E+00  0.00000000E+00
  0.00000000E+00  0.00000000E+00  0.00000000E+00
  0.00000000E+00  0.00000000E+00  0.00000000E+00
