P4
1.0
3.333887 0.036889 0.000000
0.051727 4.623062 -0.000053
0.000000 0.000000 20.024390
P
4
direct
0.500000 0.910773 0.552521 P
0.500000 0.089227 0.447479 P
-0.000000 0.410769 0.447479 P
0.000000 0.589231 0.552521 P
