Ge2 Se4                                 
   1.00000000000000     
     4.9060769999999998    0.0000000000000000    0.0000000000000000
     0.0000000000000000    5.5989890000000004    0.0000000000000000
     0.0000000000000000    0.0000000000000000   18.0792910000000013
   Ge   Se
     2     4
Direct
  0.5000000000000000  0.5000000000000000  0.5000000000000000
  0.0000000000000000 -0.0000000000000000  0.5000000000000000
  0.2500000000000000  0.2500000000000000  0.4151629961154186
  0.7500000000000000  0.7500000000000000  0.4151629961154186
  0.7500000000000000  0.2500000000000000  0.5848370038845815
  0.2500000000000000  0.7500000000000000  0.5848370038845815
 
  0.00000000E+00  0.00000000E+00  0.00000000E+00
  0.00000000E+00  0.00000000E+00  0.00000000E+00
  0.00000000E+00  0.00000000E+00  0.00000000E+00
  0.00000000E+00  0.00000000E+00  0.00000000E+00
  0.00000000E+00  0.00000000E+00  0.00000000E+00
  0.00000000E+00  0.00000000E+00  0.00000000E+00
