P4                                      
   1.00000000000000     
     3.2945609999999999    0.1319940000000000    0.0000000000000000
     0.1850820000000000    4.6196450000000002   -0.0000530000000000
     0.0000000000000000    0.0000000000000000   20.0243900000000004
   P 
     4
Direct
  0.4846757304500332  0.9114008918769523  0.5524510398906912
  0.5153242695499668  0.0885991081230479  0.4475489601093088
 -0.0153239327791854  0.4113960772240637  0.4475489653191154
  0.0153239327791854  0.5886039227759362  0.5524510346808847
 
  0.00000000E+00  0.00000000E+00  0.00000000E+00
  0.00000000E+00  0.00000000E+00  0.00000000E+00
  0.00000000E+00  0.00000000E+00  0.00000000E+00
  0.00000000E+00  0.00000000E+00  0.00000000E+00
