C2                                      
   1.00000000000000     
     2.4587219999999999   -0.0092730000000000    0.0000000000000000
    -1.2373909999999999    2.1419820000000001    0.0000000000000000
     0.0000000000000000    0.0000000000000000   15.0000000000000000
   C 
     2
Direct
  0.9997116256870910  0.9998715935995008  0.5000000000000000
  0.3336213743129122  0.6667954064004959  0.5000000000000000
 
  0.00000000E+00  0.00000000E+00  0.00000000E+00
  0.00000000E+00  0.00000000E+00  0.00000000E+00
