C2                                      
   1.00000000000000     
     2.4587219999999999   -0.0092730000000000    0.0000000000000000
    -1.2373909999999999    2.1419820000000001    0.0000000000000000
     0.0000000000000000    0.0000000000000000   15.0000000000000000
   C 
     2
Direct
 -0.0002883743129085 -0.0001284064005002  0.5000000000000000
  0.3336213743129118  0.6667954064004971  0.5000000000000000
 
  0.00000000E+00  0.00000000E+00  0.00000000E+00
  0.00000000E+00  0.00000000E+00  0.00000000E+00
