Ge2 Se4                                 
   1.00000000000000     
     4.9055249999999999    0.0735990000000000    0.0000000000000000
     0.0835770000000000    5.5705749999999998    0.0000000000000000
     0.0000000000000000    0.0000000000000000   18.0792910000000013
   Ge   Se
     2     4
Direct
  0.5000000000000000  0.5000000000000000  0.4994696544661927
 -0.0000000000000000 -0.0000000000000000  0.4994696544661927
  0.2500000000000000  0.2500000000000000  0.4152743011406702
  0.7500000000000000  0.7500000000000000  0.4152743011406702
  0.7500000000000000  0.2500000000000000  0.5852560443931371
  0.2500000000000000  0.7500000000000000  0.5852560443931371
 
  0.00000000E+00  0.00000000E+00  0.00000000E+00
  0.00000000E+00  0.00000000E+00  0.00000000E+00
  0.00000000E+00  0.00000000E+00  0.00000000E+00
  0.00000000E+00  0.00000000E+00  0.00000000E+00
  0.00000000E+00  0.00000000E+00  0.00000000E+00
  0.00000000E+00  0.00000000E+00  0.00000000E+00
