P4                                      
   1.00000000000000     
     3.2473690000000000    0.0000000000000000    0.0000000000000000
     0.0000000000000000    4.6233510000000004   -0.0000530000000000
     0.0000000000000000    0.0000000000000000   20.0243900000000004
   P 
     4
Direct
  0.5000000018948314  0.9115678754798126  0.5525877370734171
  0.4999999981051687  0.0884321245201875  0.4474122629265829
 -0.0000000026836337  0.4115633639064623  0.4474122698179051
  0.0000000026836337  0.5884366360935377  0.5525877301820948
 
  0.00000000E+00  0.00000000E+00  0.00000000E+00
  0.00000000E+00  0.00000000E+00  0.00000000E+00
  0.00000000E+00  0.00000000E+00  0.00000000E+00
  0.00000000E+00  0.00000000E+00  0.00000000E+00
