P4                                      
   1.00000000000000     
     3.2965439999999999   -0.0659570000000000    0.0000000000000000
    -0.0924860000000000    4.6224259999999999   -0.0000530000000000
     0.0000000000000000    0.0000000000000000   20.0243900000000004
   P 
     4
Direct
  0.5077203401507122  0.9109904995586399  0.5525194560084551
  0.4922796598492877  0.0890095004413602  0.4474805439915449
  0.0077202169828926  0.4109859305168478  0.4474805492164025
 -0.0077202169828926  0.5890140694831522  0.5525194507835974
 
  0.00000000E+00  0.00000000E+00  0.00000000E+00
  0.00000000E+00  0.00000000E+00  0.00000000E+00
  0.00000000E+00  0.00000000E+00  0.00000000E+00
  0.00000000E+00  0.00000000E+00  0.00000000E+00
