P4                                      
   1.00000000000000     
     3.5511970000000002    0.0000000000000000    0.0000000000000000
     0.0000000000000000    4.9795010000000000   -0.0000530000000000
     0.0000000000000000    0.0000000000000000   20.0243900000000004
   P 
     4
Direct
  0.4999999751110307  0.8974367675916961  0.5505510818951341
  0.5000000248889692  0.1025632324083039  0.4494489181048658
  0.0000000211229077  0.3974326497304414  0.4494489190783162
 -0.0000000211229077  0.6025673502695583  0.5505510809216838
 
  0.00000000E+00  0.00000000E+00  0.00000000E+00
  0.00000000E+00  0.00000000E+00  0.00000000E+00
  0.00000000E+00  0.00000000E+00  0.00000000E+00
  0.00000000E+00  0.00000000E+00  0.00000000E+00
