P4                                      
   1.00000000000000     
     3.2972039999999998    0.0000000000000000    0.0000000000000000
     0.0000000000000000    4.9795010000000000   -0.0000530000000000
     0.0000000000000000    0.0000000000000000   20.0243900000000004
   P 
     4
Direct
  0.5000000031339765  0.8998084034616640  0.5511399542959579
  0.4999999968660234  0.1001915965383359  0.4488600457040421
 -0.0000000032317242  0.3998041692699221  0.4488600460873778
  0.0000000032317242  0.6001958307300778  0.5511399539126223
 
  0.00000000E+00  0.00000000E+00  0.00000000E+00
  0.00000000E+00  0.00000000E+00  0.00000000E+00
  0.00000000E+00  0.00000000E+00  0.00000000E+00
  0.00000000E+00  0.00000000E+00  0.00000000E+00
