C2                                      
   1.00000000000000     
     2.4954700000000001    0.0276120000000000    0.0000000000000000
    -1.2238220000000000    2.1234210000000000    0.0000000000000000
     0.0000000000000000    0.0000000000000000   15.0000000000000000
   C 
     2
Direct
  0.9995715382042079  0.9998311380875222  0.5000000000000000
  0.3337614617957954  0.6668358619124746  0.5000000000000000
 
  0.00000000E+00  0.00000000E+00  0.00000000E+00
  0.00000000E+00  0.00000000E+00  0.00000000E+00
