P4                                      
   1.00000000000000     
     3.3462969999999999    0.0000000000000000    0.0000000000000000
     0.0000000000000000    4.6233510000000004   -0.0000530000000000
     0.0000000000000000    0.0000000000000000   20.0243900000000004
   P 
     4
Direct
  0.4999999983618921  0.9101307023113667  0.5524313490235054
  0.5000000016381080  0.0898692976886333  0.4475686509764946
  0.0000000013488274  0.4101261538397075  0.4475686555623066
 -0.0000000013488274  0.5898738461602925  0.5524313444376934
 
  0.00000000E+00  0.00000000E+00  0.00000000E+00
  0.00000000E+00  0.00000000E+00  0.00000000E+00
  0.00000000E+00  0.00000000E+00  0.00000000E+00
  0.00000000E+00  0.00000000E+00  0.00000000E+00
