P4                                      
   1.00000000000000     
     3.2640650000000000    0.0000000000000000    0.0000000000000000
     0.0000000000000000    4.6233510000000004   -0.0000530000000000
     0.0000000000000000    0.0000000000000000   20.0243900000000004
   P 
     4
Direct
  0.4999999968124382  0.9113070254021035  0.5525625823913580
  0.5000000031875618  0.0886929745978965  0.4474374176086420
  0.0000000027533918  0.4113025133406756  0.4474374233220419
 -0.0000000027533918  0.5886974866593244  0.5525625766779579
 
  0.00000000E+00  0.00000000E+00  0.00000000E+00
  0.00000000E+00  0.00000000E+00  0.00000000E+00
  0.00000000E+00  0.00000000E+00  0.00000000E+00
  0.00000000E+00  0.00000000E+00  0.00000000E+00
