ALGO = Normal
EDIFF = 1e-05
EDIFFG = -0.01
ENCUT = 520
IBRION = 2
ICHARG = 2
ISIF = 2
ISMEAR = 0
ISPIN = 1
LAECHG = False
LCHARG = False
LREAL = False
LWAVE = False
NELM = 250
NELMDL = -5
NELMIN = 6
NPAR = 4
NSW = 200
POTIM = 0.3
PREC = A
SIGMA = 0.02
