C2                                      
   1.00000000000000     
     2.4304239999999999   -0.0373060000000000    0.0000000000000000
    -1.2475200000000000    2.1557700000000000    0.0000000000000000
     0.0000000000000000    0.0000000000000000   15.0000000000000000
   C 
     2
Direct
  0.0014519373685786  0.0006827970548073  0.5000000000000000
  0.3318810626314246  0.6659842029451895  0.5000000000000000
 
  0.00000000E+00  0.00000000E+00  0.00000000E+00
  0.00000000E+00  0.00000000E+00  0.00000000E+00
