P4                                      
   1.00000000000000     
     3.4265550000000000    0.0000000000000000    0.0000000000000000
     0.0000000000000000    4.8047269999999997   -0.0000530000000000
     0.0000000000000000    0.0000000000000000   20.0243900000000004
   P 
     4
Direct
  0.5000000011989657  0.9034917928094020  0.5515600283574255
  0.4999999988010342  0.0965082071905982  0.4484399716425745
  0.0000000031397376  0.4034872973269217  0.4484399699872474
 -0.0000000031397376  0.5965127026730782  0.5515600300127526
 
  0.00000000E+00  0.00000000E+00  0.00000000E+00
  0.00000000E+00  0.00000000E+00  0.00000000E+00
  0.00000000E+00  0.00000000E+00  0.00000000E+00
  0.00000000E+00  0.00000000E+00  0.00000000E+00
