Ge2 Se4                                 
   1.00000000000000     
     4.8567679999999998    0.0000000000000000    0.0000000000000000
     0.0000000000000000    5.5152089999999996    0.0000000000000000
     0.0000000000000000    0.0000000000000000   18.0792910000000013
   Ge   Se
     2     4
Direct
  0.5000000000000000  0.5000000000000000  0.5000000000000000
  0.0000000000000000  0.0000000000000000  0.5000000000000000
  0.2500000000000000  0.2500000000000000  0.4145331845270582
  0.7500000000000000  0.7500000000000000  0.4145331845270582
  0.7500000000000000  0.2500000000000000  0.5854668154729418
  0.2500000000000000  0.7500000000000000  0.5854668154729418
 
  0.00000000E+00  0.00000000E+00  0.00000000E+00
  0.00000000E+00  0.00000000E+00  0.00000000E+00
  0.00000000E+00  0.00000000E+00  0.00000000E+00
  0.00000000E+00  0.00000000E+00  0.00000000E+00
  0.00000000E+00  0.00000000E+00  0.00000000E+00
  0.00000000E+00  0.00000000E+00  0.00000000E+00
