P4                                      
   1.00000000000000     
     3.2972039999999998    0.0000000000000000    0.0000000000000000
     0.0000000000000000    4.8490110000000000   -0.0000530000000000
     0.0000000000000000    0.0000000000000000   20.0243900000000004
   P 
     4
Direct
  0.5000000026909159  0.9037729396609641  0.5516760879766197
  0.4999999973090840  0.0962270603390360  0.4483239120233803
  0.0000000005643025  0.4037685782451333  0.4483239139202172
 -0.0000000005643025  0.5962314217548668  0.5516760860797828
 
  0.00000000E+00  0.00000000E+00  0.00000000E+00
  0.00000000E+00  0.00000000E+00  0.00000000E+00
  0.00000000E+00  0.00000000E+00  0.00000000E+00
  0.00000000E+00  0.00000000E+00  0.00000000E+00
