P4                                      
   1.00000000000000     
     3.2847930000000001   -0.0123880000000000    0.0000000000000000
    -0.0173700000000000    4.6233180000000003   -0.0000530000000000
     0.0000000000000000    0.0000000000000000   20.0243900000000004
   P 
     4
Direct
  0.5014390343024427  0.9110254024868629  0.5525251440472096
  0.4985609656975572  0.0889745975131371  0.4474748559527904
  0.0014390161382933  0.4110210692324204  0.4474748623283611
 -0.0014390161382933  0.5889789307675797  0.5525251376716389
 
  0.00000000E+00  0.00000000E+00  0.00000000E+00
  0.00000000E+00  0.00000000E+00  0.00000000E+00
  0.00000000E+00  0.00000000E+00  0.00000000E+00
  0.00000000E+00  0.00000000E+00  0.00000000E+00
