P4                                      
   1.00000000000000     
     3.2640650000000000    0.0000000000000000    0.0000000000000000
     0.0000000000000000    4.5768839999999997   -0.0000530000000000
     0.0000000000000000    0.0000000000000000   20.0243900000000004
   P 
     4
Direct
  0.5000000007057042  0.9128493704219942  0.5527398853986186
  0.4999999992942957  0.0871506295780058  0.4472601146013813
 -0.0000000006049037  0.4128446208084086  0.4472601205917900
  0.0000000006049037  0.5871553791915914  0.5527398794082101
 
  0.00000000E+00  0.00000000E+00  0.00000000E+00
  0.00000000E+00  0.00000000E+00  0.00000000E+00
  0.00000000E+00  0.00000000E+00  0.00000000E+00
  0.00000000E+00  0.00000000E+00  0.00000000E+00
