P4                                      
   1.00000000000000     
     3.4581369999999998    0.0000000000000000    0.0000000000000000
     0.0000000000000000    4.8490110000000000   -0.0000530000000000
     0.0000000000000000    0.0000000000000000   20.0243900000000004
   P 
     4
Direct
  0.4999999994885035  0.9018575867754410  0.5513127821116288
  0.5000000005114966  0.0981424132245589  0.4486872178883712
  0.0000000030236321  0.4018531758948333  0.4486872178598917
 -0.0000000030236321  0.5981468241051667  0.5513127821401083
 
  0.00000000E+00  0.00000000E+00  0.00000000E+00
  0.00000000E+00  0.00000000E+00  0.00000000E+00
  0.00000000E+00  0.00000000E+00  0.00000000E+00
  0.00000000E+00  0.00000000E+00  0.00000000E+00
