P4                                      
   1.00000000000000     
     3.3300130000000001    0.0000000000000000    0.0000000000000000
     0.0000000000000000    4.6233510000000004   -0.0000530000000000
     0.0000000000000000    0.0000000000000000   20.0243900000000004
   P 
     4
Direct
  0.5000000059403810  0.9103505822768503  0.5524581746403332
  0.4999999940596190  0.0896494177231497  0.4475418253596669
 -0.0000000052354128  0.4103460327688315  0.4475418326916705
  0.0000000052354128  0.5896539672311685  0.5524581673083295
 
  0.00000000E+00  0.00000000E+00  0.00000000E+00
  0.00000000E+00  0.00000000E+00  0.00000000E+00
  0.00000000E+00  0.00000000E+00  0.00000000E+00
  0.00000000E+00  0.00000000E+00  0.00000000E+00
