P4                                      
   1.00000000000000     
     3.2971629999999998    0.0164860000000000    0.0000000000000000
     0.0231170000000000    4.6232930000000003   -0.0000530000000000
     0.0000000000000000    0.0000000000000000   20.0243900000000004
   P 
     4
Direct
  0.4980903657733639  0.9108717539267981  0.5525134192705551
  0.5019096342266363  0.0891282460732018  0.4474865807294450
 -0.0019096165652612  0.4108674151938974  0.4474865845795228
  0.0019096165652612  0.5891325848061028  0.5525134154204772
 
  0.00000000E+00  0.00000000E+00  0.00000000E+00
  0.00000000E+00  0.00000000E+00  0.00000000E+00
  0.00000000E+00  0.00000000E+00  0.00000000E+00
  0.00000000E+00  0.00000000E+00  0.00000000E+00
