P4                                      
   1.00000000000000     
     3.6119059999999998    0.0000000000000000    0.0000000000000000
     0.0000000000000000    4.6233510000000004   -0.0000530000000000
     0.0000000000000000    0.0000000000000000   20.0243900000000004
   P 
     4
Direct
  0.5000000018974259  0.9076328779375397  0.5518927836550764
  0.4999999981025742  0.0923671220624603  0.4481072163449237
 -0.0000000020935482  0.4076282558962787  0.4481072113878508
  0.0000000020935482  0.5923717441037212  0.5518927886121493
 
  0.00000000E+00  0.00000000E+00  0.00000000E+00
  0.00000000E+00  0.00000000E+00  0.00000000E+00
  0.00000000E+00  0.00000000E+00  0.00000000E+00
  0.00000000E+00  0.00000000E+00  0.00000000E+00
