P4                                      
   1.00000000000000     
     3.2972039999999998    0.0000000000000000    0.0000000000000000
     0.0000000000000000    4.7600309999999997   -0.0000530000000000
     0.0000000000000000    0.0000000000000000   20.0243900000000004
   P 
     4
Direct
  0.5000000001016500  0.9064482796459059  0.5520111986104308
  0.4999999998983500  0.0935517203540941  0.4479888013895693
 -0.0000000001751010  0.4064437874676584  0.4479888017966296
  0.0000000001751010  0.5935562125323417  0.5520111982033703
 
  0.00000000E+00  0.00000000E+00  0.00000000E+00
  0.00000000E+00  0.00000000E+00  0.00000000E+00
  0.00000000E+00  0.00000000E+00  0.00000000E+00
  0.00000000E+00  0.00000000E+00  0.00000000E+00
