P4                                      
   1.00000000000000     
     3.2837130000000001    0.2979680000000000    0.0000000000000000
     0.4178110000000000    4.6044340000000004   -0.0000530000000000
     0.0000000000000000    0.0000000000000000   20.0243900000000004
   P 
     4
Direct
  0.4646018601886105  0.9139404512525529  0.5521088113567139
  0.5353981398113894  0.0860595487474473  0.4478911886432860
 -0.0353972133981249  0.4139354061107593  0.4478911973395575
  0.0353972133981249  0.5860645938892405  0.5521088026604425
 
  0.00000000E+00  0.00000000E+00  0.00000000E+00
  0.00000000E+00  0.00000000E+00  0.00000000E+00
  0.00000000E+00  0.00000000E+00  0.00000000E+00
  0.00000000E+00  0.00000000E+00  0.00000000E+00
