P4                                      
   1.00000000000000     
     3.3459360000000000    0.0490980000000000    0.0000000000000000
     0.0688450000000000    4.6228379999999998   -0.0000530000000000
     0.0000000000000000    0.0000000000000000   20.0243900000000004
   P 
     4
Direct
  0.4944742859639098  0.9102085442960555  0.5524257835139649
  0.5055257140360903  0.0897914557039446  0.4475742164860350
 -0.0055256163030233  0.4102039145175540  0.4475742209078895
  0.0055256163030233  0.5897960854824460  0.5524257790921104
 
  0.00000000E+00  0.00000000E+00  0.00000000E+00
  0.00000000E+00  0.00000000E+00  0.00000000E+00
  0.00000000E+00  0.00000000E+00  0.00000000E+00
  0.00000000E+00  0.00000000E+00  0.00000000E+00
