P4                                      
   1.00000000000000     
     3.4894330000000000    0.0000000000000000    0.0000000000000000
     0.0000000000000000    4.8928950000000002   -0.0000530000000000
     0.0000000000000000    0.0000000000000000   20.0243900000000004
   P 
     4
Direct
  0.4999999971281397  0.9003007698434826  0.5510622067832625
  0.5000000028718604  0.0996992301565174  0.4489377932167376
 -0.0000000033348488  0.4002964305679593  0.4489377941279954
  0.0000000033348488  0.5997035694320407  0.5510622058720046
 
  0.00000000E+00  0.00000000E+00  0.00000000E+00
  0.00000000E+00  0.00000000E+00  0.00000000E+00
  0.00000000E+00  0.00000000E+00  0.00000000E+00
  0.00000000E+00  0.00000000E+00  0.00000000E+00
