P4                                      
   1.00000000000000     
     3.2722869999999999   -0.0248230000000000    0.0000000000000000
    -0.0348070000000000    4.6232199999999999   -0.0000530000000000
     0.0000000000000000    0.0000000000000000   20.0243900000000004
   P 
     4
Direct
  0.5029383361785438  0.9112170028400707  0.5525502097236232
  0.4970616638214562  0.0887829971599294  0.4474497902763768
  0.0029383004203595  0.4112125085265956  0.4474497949969814
 -0.0029383004203595  0.5887874914734044  0.5525502050030185
 
  0.00000000E+00  0.00000000E+00  0.00000000E+00
  0.00000000E+00  0.00000000E+00  0.00000000E+00
  0.00000000E+00  0.00000000E+00  0.00000000E+00
  0.00000000E+00  0.00000000E+00  0.00000000E+00
