P4                                      
   1.00000000000000     
     3.3095450000000000    0.0000000000000000    0.0000000000000000
     0.0000000000000000    4.6406559999999999   -0.0000530000000000
     0.0000000000000000    0.0000000000000000   20.0243900000000004
   P 
     4
Direct
  0.5000000047599075  0.9100717736291138  0.5524502729338968
  0.4999999952400926  0.0899282263708862  0.4475497270661032
 -0.0000000047902728  0.4100672722092547  0.4475497327790866
  0.0000000047902728  0.5899327277907452  0.5524502672209134
 
  0.00000000E+00  0.00000000E+00  0.00000000E+00
  0.00000000E+00  0.00000000E+00  0.00000000E+00
  0.00000000E+00  0.00000000E+00  0.00000000E+00
  0.00000000E+00  0.00000000E+00  0.00000000E+00
