P4                                      
   1.00000000000000     
     3.2848160000000002    0.0000000000000000    0.0000000000000000
     0.0000000000000000    4.6059809999999999   -0.0000530000000000
     0.0000000000000000    0.0000000000000000   20.0243900000000004
   P 
     4
Direct
  0.4999999997276061  0.9115602440980390  0.5525722100440184
  0.5000000002723939  0.0884397559019610  0.4474277899559817
 -0.0000000010805376  0.4115557236996066  0.4474277963538778
  0.0000000010805376  0.5884442763003933  0.5525722036461221
 
  0.00000000E+00  0.00000000E+00  0.00000000E+00
  0.00000000E+00  0.00000000E+00  0.00000000E+00
  0.00000000E+00  0.00000000E+00  0.00000000E+00
  0.00000000E+00  0.00000000E+00  0.00000000E+00
