P4                                      
   1.00000000000000     
     3.3946790000000000    0.0000000000000000    0.0000000000000000
     0.0000000000000000    4.7600309999999997   -0.0000530000000000
     0.0000000000000000    0.0000000000000000   20.0243900000000004
   P 
     4
Direct
  0.5000000001089874  0.9052164559509316  0.5517992430804166
  0.4999999998910126  0.0947835440490685  0.4482007569195834
 -0.0000000000777921  0.4052119808873446  0.4482007559115792
  0.0000000000777921  0.5947880191126553  0.5517992440884207
 
  0.00000000E+00  0.00000000E+00  0.00000000E+00
  0.00000000E+00  0.00000000E+00  0.00000000E+00
  0.00000000E+00  0.00000000E+00  0.00000000E+00
  0.00000000E+00  0.00000000E+00  0.00000000E+00
