P4                                      
   1.00000000000000     
     3.5816800000000000    0.0000000000000000    0.0000000000000000
     0.0000000000000000    5.0222449999999998   -0.0000530000000000
     0.0000000000000000    0.0000000000000000   20.0243900000000004
   P 
     4
Direct
  0.5000000018066494  0.8959940576557770  0.5502759620659903
  0.4999999981933504  0.1040059423442231  0.4497240379340098
 -0.0000000033399217  0.3959899371746936  0.4497240384747119
  0.0000000033399217  0.6040100628253064  0.5502759615252881
 
  0.00000000E+00  0.00000000E+00  0.00000000E+00
  0.00000000E+00  0.00000000E+00  0.00000000E+00
  0.00000000E+00  0.00000000E+00  0.00000000E+00
  0.00000000E+00  0.00000000E+00  0.00000000E+00
