P4                                      
   1.00000000000000     
     3.2972039999999998    0.0000000000000000    0.0000000000000000
     0.0000000000000000    4.6921889999999999   -0.0000530000000000
     0.0000000000000000    0.0000000000000000   20.0243900000000004
   P 
     4
Direct
  0.5000000028044047  0.9085707725319827  0.5522657680700712
  0.4999999971955952  0.0914292274680173  0.4477342319299288
 -0.0000000023487646  0.4085661797370414  0.4477342337524995
  0.0000000023487646  0.5914338202629587  0.5522657662475007
 
  0.00000000E+00  0.00000000E+00  0.00000000E+00
  0.00000000E+00  0.00000000E+00  0.00000000E+00
  0.00000000E+00  0.00000000E+00  0.00000000E+00
  0.00000000E+00  0.00000000E+00  0.00000000E+00
