P4                                      
   1.00000000000000     
     3.3625020000000001    0.0000000000000000    0.0000000000000000
     0.0000000000000000    4.7149109999999999   -0.0000530000000000
     0.0000000000000000    0.0000000000000000   20.0243900000000004
   P 
     4
Direct
  0.4999999995725179  0.9069966649937722  0.5520415170793156
  0.5000000004274820  0.0930033350062279  0.4479584829206844
  0.0000000000980578  0.4069921197356122  0.4479584819720668
 -0.0000000000980578  0.5930078802643877  0.5520415180279330
 
  0.00000000E+00  0.00000000E+00  0.00000000E+00
  0.00000000E+00  0.00000000E+00  0.00000000E+00
  0.00000000E+00  0.00000000E+00  0.00000000E+00
  0.00000000E+00  0.00000000E+00  0.00000000E+00
